evm/ejemplos_dzn/EthPriceMintModule_run_code_of_0_block_24_0_inputSTACKDEP.dzn
TERM = { '.', s5, s6, s7, s8, s9};
null = '.';
s = 5;
n = 5;
min = 5;
N0 = 1;
ZEROARYOP = { CALLDATASIZE_0 };
zeroout = [ s6 ];
zerogas = [ 2 ];
zerosz = [ 1 ];
zerolb = [ 1 ];
zeroub = [ 5 ];
N1 = 0;
UNARYOP = {};
unin =  [];
unout = [];
ungas = [];
unsz =  [];
unlb =  [];
unub =  [];
N2 = 0;
BINARYOP = {};
binin1 =  [];
binin2 =  [];
binout = [];
bincomm = [];
bingas = [];
binsz =  [];
binlb =  [];
binub =  [];
NA = 0;
ASSOCIATIVEADDOP = {};
naddin =  [];
addin =  [||];
addout = [];
addcomm = [];
addgas = [];
addsz =  [];
addlb =  [];
addub =  [];
NPUSH = 4;
PUSHOP = { 'PUSH [tag]_0', 'PUSH [tag]_1', 'PUSH [tag]_2', PUSH_0 };
pushout = [ s5, s7, s8, s9 ];
pushgas = [ 3, 3, 3, 3 ];
pushsz = [ 3, 3, 3, 2 ];
pushlb = [ 1, 1, 1, 1 ];
pushub = [ 5, 5, 5, 5 ];
NSTORE = 0;
STOROP = {};
storin1 =  [];
storin2 =  [];
storlb =  [];
storub =  [];
storgas = [];
storsz = [];
DUP_ENUM = { DUP1, DUP2, DUP3, DUP4};
SWAP_ENUM = { SWAP1, SWAP2, SWAP3, SWAP4};
startstack = [ null, null, null, null, null ];
endstack = [ s5, s9, s6, s7, s8 ];
m_dep_n = 0;
memory_dependences = [| |];
s_dep_n = 0;
store_dependences = [| |];
lib = true;
nlib = 2;
lib_elem = [| s7, s6 | s7, s8 |];
lib_dis = [-1, 1];
