evm/ejemplos_results/EthPriceMintModule_run_code_of_0_block_24_0_inputSTACKDEP.txt
value = 5;
fgas = [2, 3, 3, 3, 3];
fsize = [1, 3, 3, 3, 2];
states = 
[| '.', '.', '.', '.', '.'
 |  s6, '.', '.', '.', '.'
 |  s8,  s6, '.', '.', '.'
 |  s5,  s8,  s6, '.', '.'
 |  s7,  s5,  s8,  s6, '.'
 |  s9,  s7,  s5,  s8,  s6
 |];
program = [Z(CALLDATASIZE_0), P('PUSH [tag]_2'), P('PUSH [tag]_0'), P('PUSH [tag]_1'), P(PUSH_0)];
% time elapsed: 0.75 s
----------
==========
% time elapsed: 0.75 s
% [value > 4]
